
Gurobi 10.0.1 (win64) logging started Sat Jun 10 18:09:34 2023

Set parameter LogFile to value "results/log/Fattahi_setup_09_modified_deadline.log"
Gurobi Optimizer version 10.0.1 build v10.0.1rc0 (win64)

CPU model: AMD Ryzen 7 3700X 8-Core Processor, instruction set [SSE2|AVX|AVX2]
Thread count: 8 physical cores, 16 logical processors, using up to 16 threads

Optimize a model with 164 rows, 136 columns and 613 nonzeros
Model fingerprint: 0x5c57ef85
Variable types: 0 continuous, 136 integer (117 binary)
Coefficient statistics:
  Matrix range     [1e+00, 1e+09]
  Objective range  [1e+00, 1e+00]
  Bounds range     [1e+00, 1e+00]
  RHS range        [1e+00, 3e+09]
Warning: Model contains large matrix coefficients
Warning: Model contains large rhs
         Consider reformulating model or setting NumericFocus parameter
         to avoid numerical issues.
Presolve removed 40 rows and 82 columns
Presolve time: 0.00s
Presolved: 124 rows, 54 columns, 520 nonzeros
Variable types: 0 continuous, 54 integer (36 binary)

Root relaxation: objective 3.560000e+02, 20 iterations, 0.00 seconds (0.00 work units)

    Nodes    |    Current Node    |     Objective Bounds      |     Work
 Expl Unexpl |  Obj  Depth IntInf | Incumbent    BestBd   Gap | It/Node Time

     0     0  356.00000    0   15          -  356.00000      -     -    0s
H    0     0                     781.0000000  356.00000  54.4%     -    0s
H    0     0                     692.0000000  356.00000  48.6%     -    0s
H    0     0                     566.0000000  356.00000  37.1%     -    0s
H    0     0                     556.0000000  356.00000  36.0%     -    0s
H    0     0                     543.0000000  373.00000  31.3%     -    0s
H    0     0                     535.0000000  373.00000  30.3%     -    0s
     0     0  373.00000    0   21  535.00000  373.00000  30.3%     -    0s
H    0     0                     492.0000000  378.00000  23.2%     -    0s
     0     0  378.00000    0   20  492.00000  378.00000  23.2%     -    0s
     0     0  382.00000    0   21  492.00000  382.00000  22.4%     -    0s
H    0     0                     485.0000000  382.00000  21.2%     -    0s
H    0     0                     460.0000000  386.00000  16.1%     -    0s
     0     0  386.00000    0   20  460.00000  386.00000  16.1%     -    0s
     0     0  386.00000    0   23  460.00000  386.00000  16.1%     -    0s
     0     0  386.00000    0   21  460.00000  386.00000  16.1%     -    0s
     0     0  387.00000    0   21  460.00000  387.00000  15.9%     -    0s
     0     0  389.00000    0   20  460.00000  389.00000  15.4%     -    0s
     0     0  390.00000    0   20  460.00000  390.00000  15.2%     -    0s
     0     0  390.00000    0   18  460.00000  390.00000  15.2%     -    0s
     0     2  390.00000    0   18  460.00000  390.00000  15.2%     -    0s
H  132    41                     458.0000000  390.00000  14.8%   3.6    0s
*  236    29               6     455.0000000  390.00000  14.3%   3.6    0s
H  336     3                     443.0000000  404.00000  8.80%   3.5    0s

Cutting planes:
  Learned: 7
  Implied bound: 4
  MIR: 3
  StrongCG: 1
  Flow cover: 2

Explored 377 nodes (1331 simplex iterations) in 0.08 seconds (0.03 work units)
Thread count was 16 (of 16 available processors)

Solution count 10: 443 455 458 ... 566

Optimal solution found (tolerance 1.00e-04)
Best objective 4.430000000000e+02, best bound 4.430000000000e+02, gap 0.0000%
Warning: variable name "y[job:0, stage:0, machine:1]" has a space
Warning: constraint name "precedence between 1,0 to 0,0 if x_[j,l,h,z,i]=1" has a space
Warning: to let Gurobi read it back, use rlp format
Warning: variable name "y[job:0, stage:0, machine:1]" has a space
Warning: constraint name "precedence between 1,0 to 0,0 if x_[j,l,h,z,i]=1" has a space
Warning: default variable names used to write mps file
Warning: default constraint names used to write mps file
Warning: variable name "y[job:0, stage:0, machine:1]" has a space
Warning: default variable names used to write solution file
